;; Mutation-Based Equivalence Benchmark
;; Source:     AutomatArk / instance09027.smt2
;; Mutations:  union_to_inter, range_shrink_lo
;; Status:     sat
;;
;; Original regex vs mutated regex
;; Equivalence check: unsat ⟺ L(R1) = L(R2)

(set-info :smt-lib-version 2.6)
(set-info :category "mutation")
(set-info :status sat)
(set-logic QF_S)

(declare-const x String)

;; R1: original
;; R2: mutated (union_to_inter, range_shrink_lo)
(assert
  (str.in_re x
    (re.union (re.inter (re.++ (str.to_re "whenu.com\u{1b}") (re.+ (re.range "0" "9")) (str.to_re "Agent") (re.union (str.to_re " ") (str.to_re "\u{9}") (str.to_re "\u{a}") (str.to_re "\u{c}") (str.to_re "\u{d}")) (str.to_re "toWebupdate.cgithisHost:connection\u{a}")) (re.comp (re.++ (str.to_re "whenu.com\u{1b}") (re.+ (re.range "1" "9")) (str.to_re "Agent") (re.inter(str.to_re " ") (str.to_re "\u{9}") (str.to_re "\u{a}") (str.to_re "\u{c}") (str.to_re "\u{d}")) (str.to_re "toWebupdate.cgithisHost:connection\u{a}")))) (re.inter (re.comp (re.++ (str.to_re "whenu.com\u{1b}") (re.+ (re.range "0" "9")) (str.to_re "Agent") (re.union (str.to_re " ") (str.to_re "\u{9}") (str.to_re "\u{a}") (str.to_re "\u{c}") (str.to_re "\u{d}")) (str.to_re "toWebupdate.cgithisHost:connection\u{a}"))) (re.++ (str.to_re "whenu.com\u{1b}") (re.+ (re.range "1" "9")) (str.to_re "Agent") (re.inter(str.to_re " ") (str.to_re "\u{9}") (str.to_re "\u{a}") (str.to_re "\u{c}") (str.to_re "\u{d}")) (str.to_re "toWebupdate.cgithisHost:connection\u{a}"))))))

(check-sat)
(exit)
